language Essence 1.3

letting costTC be
        function((1, 1) --> 6, (1, 2) --> 3, (1, 3) --> 17, (1, 4) --> 14, (1, 5) --> 10, (1, 6) --> 14, (2, 1) --> 13,
                 (2, 2) --> 18, (2, 3) --> 15, (2, 4) --> 8, (2, 5) --> 20, (2, 6) --> 8, (3, 1) --> 12, (3, 2) --> 16,
                 (3, 3) --> 21, (3, 4) --> 7, (3, 5) --> 9, (3, 6) --> 16, (4, 1) --> 16, (4, 2) --> 12, (4, 3) --> 6,
                 (4, 4) --> 16, (4, 5) --> 7, (4, 6) --> 20, (5, 1) --> 15, (5, 2) --> 18, (5, 3) --> 15, (5, 4) --> 3,
                 (5, 5) --> 20, (5, 6) --> 5, (6, 1) --> 20, (6, 2) --> 13, (6, 3) --> 6, (6, 4) --> 17, (6, 5) --> 7,
                 (6, 6) --> 8, (7, 1) --> 6, (7, 2) --> 19, (7, 3) --> 14, (7, 4) --> 19, (7, 5) --> 13, (7, 6) --> 1,
                 (8, 1) --> 15, (8, 2) --> 12, (8, 3) --> 19, (8, 4) --> 2, (8, 5) --> 5, (8, 6) --> 5, (9, 1) --> 17,
                 (9, 2) --> 12, (9, 3) --> 9, (9, 4) --> 16, (9, 5) --> 20, (9, 6) --> 6, (10, 1) --> 11,
                 (10, 2) --> 20, (10, 3) --> 8, (10, 4) --> 13, (10, 5) --> 1, (10, 6) --> 1, (11, 1) --> 6,
                 (11, 2) --> 10, (11, 3) --> 20, (11, 4) --> 8, (11, 5) --> 15, (11, 6) --> 3, (12, 1) --> 15,
                 (12, 2) --> 20, (12, 3) --> 9, (12, 4) --> 21, (12, 5) --> 14, (12, 6) --> 3, (13, 1) --> 6,
                 (13, 2) --> 11, (13, 3) --> 15, (13, 4) --> 21, (13, 5) --> 9, (13, 6) --> 4, (14, 1) --> 11,
                 (14, 2) --> 13, (14, 3) --> 12, (14, 4) --> 1, (14, 5) --> 10, (14, 6) --> 17, (15, 1) --> 2,
                 (15, 2) --> 4, (15, 3) --> 17, (15, 4) --> 19, (15, 5) --> 20, (15, 6) --> 8, (16, 1) --> 19,
                 (16, 2) --> 12, (16, 3) --> 3, (16, 4) --> 12, (16, 5) --> 20, (16, 6) --> 12, (17, 1) --> 19,
                 (17, 2) --> 17, (17, 3) --> 14, (17, 4) --> 4, (17, 5) --> 20, (17, 6) --> 18, (18, 1) --> 16,
                 (18, 2) --> 8, (18, 3) --> 19, (18, 4) --> 15, (18, 5) --> 5, (18, 6) --> 10, (19, 1) --> 7,
                 (19, 2) --> 6, (19, 3) --> 16, (19, 4) --> 10, (19, 5) --> 9, (19, 6) --> 4, (20, 1) --> 16,
                 (20, 2) --> 21, (20, 3) --> 18, (20, 4) --> 10, (20, 5) --> 10, (20, 6) --> 11, (21, 1) --> 10,
                 (21, 2) --> 1, (21, 3) --> 21, (21, 4) --> 16, (21, 5) --> 20, (21, 6) --> 1, (22, 1) --> 7,
                 (22, 2) --> 14, (22, 3) --> 18, (22, 4) --> 1, (22, 5) --> 16, (22, 6) --> 12, (23, 1) --> 2,
                 (23, 2) --> 15, (23, 3) --> 12, (23, 4) --> 10, (23, 5) --> 3, (23, 6) --> 1, (24, 1) --> 15,
                 (24, 2) --> 11, (24, 3) --> 19, (24, 4) --> 4, (24, 5) --> 2, (24, 6) --> 9, (25, 1) --> 6,
                 (25, 2) --> 18, (25, 3) --> 8, (25, 4) --> 11, (25, 5) --> 21, (25, 6) --> 5, (26, 1) --> 3,
                 (26, 2) --> 17, (26, 3) --> 6, (26, 4) --> 15, (26, 5) --> 4, (26, 6) --> 5, (27, 1) --> 19,
                 (27, 2) --> 20, (27, 3) --> 13, (27, 4) --> 13, (27, 5) --> 5, (27, 6) --> 9, (28, 1) --> 16,
                 (28, 2) --> 19, (28, 3) --> 5, (28, 4) --> 20, (28, 5) --> 6, (28, 6) --> 1, (29, 1) --> 11,
                 (29, 2) --> 14, (29, 3) --> 3, (29, 4) --> 17, (29, 5) --> 12, (29, 6) --> 10, (30, 1) --> 12,
                 (30, 2) --> 12, (30, 3) --> 10, (30, 4) --> 5, (30, 5) --> 14, (30, 6) --> 5)
letting costWT be
        function((1, 1) --> 3, (1, 2) --> 2, (1, 3) --> 3, (1, 4) --> 2, (1, 5) --> 1, (1, 6) --> 3, (1, 7) --> 3,
                 (1, 8) --> 3, (1, 9) --> 3, (1, 10) --> 2, (1, 11) --> 1, (1, 12) --> 1, (1, 13) --> 1, (1, 14) --> 2,
                 (1, 15) --> 3, (1, 16) --> 3, (1, 17) --> 1, (1, 18) --> 1, (1, 19) --> 2, (1, 20) --> 3,
                 (1, 21) --> 2, (1, 22) --> 2, (1, 23) --> 1, (1, 24) --> 2, (1, 25) --> 2, (1, 26) --> 2,
                 (1, 27) --> 3, (1, 28) --> 2, (1, 29) --> 3, (1, 30) --> 3, (2, 1) --> 1, (2, 2) --> 3, (2, 3) --> 1,
                 (2, 4) --> 1, (2, 5) --> 2, (2, 6) --> 3, (2, 7) --> 2, (2, 8) --> 2, (2, 9) --> 2, (2, 10) --> 2,
                 (2, 11) --> 3, (2, 12) --> 3, (2, 13) --> 1, (2, 14) --> 2, (2, 15) --> 2, (2, 16) --> 3,
                 (2, 17) --> 3, (2, 18) --> 3, (2, 19) --> 3, (2, 20) --> 3, (2, 21) --> 3, (2, 22) --> 1,
                 (2, 23) --> 2, (2, 24) --> 2, (2, 25) --> 3, (2, 26) --> 1, (2, 27) --> 2, (2, 28) --> 1,
                 (2, 29) --> 1, (2, 30) --> 3, (3, 1) --> 2, (3, 2) --> 2, (3, 3) --> 2, (3, 4) --> 1, (3, 5) --> 2,
                 (3, 6) --> 1, (3, 7) --> 1, (3, 8) --> 3, (3, 9) --> 3, (3, 10) --> 1, (3, 11) --> 3, (3, 12) --> 2,
                 (3, 13) --> 1, (3, 14) --> 3, (3, 15) --> 2, (3, 16) --> 1, (3, 17) --> 1, (3, 18) --> 1,
                 (3, 19) --> 2, (3, 20) --> 3, (3, 21) --> 1, (3, 22) --> 2, (3, 23) --> 2, (3, 24) --> 2,
                 (3, 25) --> 1, (3, 26) --> 3, (3, 27) --> 1, (3, 28) --> 3, (3, 29) --> 2, (3, 30) --> 3, (4, 1) --> 1,
                 (4, 2) --> 3, (4, 3) --> 1, (4, 4) --> 3, (4, 5) --> 3, (4, 6) --> 3, (4, 7) --> 1, (4, 8) --> 3,
                 (4, 9) --> 1, (4, 10) --> 1, (4, 11) --> 1, (4, 12) --> 3, (4, 13) --> 1, (4, 14) --> 2, (4, 15) --> 1,
                 (4, 16) --> 3, (4, 17) --> 3, (4, 18) --> 2, (4, 19) --> 3, (4, 20) --> 1, (4, 21) --> 1,
                 (4, 22) --> 2, (4, 23) --> 3, (4, 24) --> 3, (4, 25) --> 3, (4, 26) --> 2, (4, 27) --> 2,
                 (4, 28) --> 3, (4, 29) --> 3, (4, 30) --> 2, (5, 1) --> 2, (5, 2) --> 3, (5, 3) --> 3, (5, 4) --> 2,
                 (5, 5) --> 2, (5, 6) --> 2, (5, 7) --> 1, (5, 8) --> 3, (5, 9) --> 3, (5, 10) --> 2, (5, 11) --> 3,
                 (5, 12) --> 1, (5, 13) --> 3, (5, 14) --> 2, (5, 15) --> 3, (5, 16) --> 1, (5, 17) --> 1,
                 (5, 18) --> 1, (5, 19) --> 3, (5, 20) --> 3, (5, 21) --> 2, (5, 22) --> 1, (5, 23) --> 2,
                 (5, 24) --> 2, (5, 25) --> 1, (5, 26) --> 3, (5, 27) --> 1, (5, 28) --> 1, (5, 29) --> 2,
                 (5, 30) --> 2, (6, 1) --> 1, (6, 2) --> 1, (6, 3) --> 1, (6, 4) --> 3, (6, 5) --> 3, (6, 6) --> 1,
                 (6, 7) --> 3, (6, 8) --> 2, (6, 9) --> 3, (6, 10) --> 1, (6, 11) --> 2, (6, 12) --> 1, (6, 13) --> 1,
                 (6, 14) --> 2, (6, 15) --> 1, (6, 16) --> 1, (6, 17) --> 3, (6, 18) --> 2, (6, 19) --> 2,
                 (6, 20) --> 2, (6, 21) --> 1, (6, 22) --> 2, (6, 23) --> 3, (6, 24) --> 1, (6, 25) --> 1,
                 (6, 26) --> 3, (6, 27) --> 1, (6, 28) --> 3, (6, 29) --> 1, (6, 30) --> 3, (7, 1) --> 1, (7, 2) --> 3,
                 (7, 3) --> 1, (7, 4) --> 2, (7, 5) --> 2, (7, 6) --> 1, (7, 7) --> 2, (7, 8) --> 3, (7, 9) --> 1,
                 (7, 10) --> 3, (7, 11) --> 3, (7, 12) --> 2, (7, 13) --> 3, (7, 14) --> 3, (7, 15) --> 3,
                 (7, 16) --> 2, (7, 17) --> 1, (7, 18) --> 3, (7, 19) --> 1, (7, 20) --> 2, (7, 21) --> 1,
                 (7, 22) --> 3, (7, 23) --> 2, (7, 24) --> 3, (7, 25) --> 1, (7, 26) --> 3, (7, 27) --> 1,
                 (7, 28) --> 3, (7, 29) --> 3, (7, 30) --> 2, (8, 1) --> 2, (8, 2) --> 2, (8, 3) --> 2, (8, 4) --> 2,
                 (8, 5) --> 2, (8, 6) --> 2, (8, 7) --> 3, (8, 8) --> 1, (8, 9) --> 2, (8, 10) --> 1, (8, 11) --> 3,
                 (8, 12) --> 1, (8, 13) --> 3, (8, 14) --> 3, (8, 15) --> 3, (8, 16) --> 1, (8, 17) --> 2,
                 (8, 18) --> 3, (8, 19) --> 3, (8, 20) --> 1, (8, 21) --> 1, (8, 22) --> 3, (8, 23) --> 3,
                 (8, 24) --> 2, (8, 25) --> 3, (8, 26) --> 3, (8, 27) --> 2, (8, 28) --> 3, (8, 29) --> 2,
                 (8, 30) --> 1, (9, 1) --> 2, (9, 2) --> 3, (9, 3) --> 3, (9, 4) --> 3, (9, 5) --> 3, (9, 6) --> 2,
                 (9, 7) --> 1, (9, 8) --> 1, (9, 9) --> 1, (9, 10) --> 2, (9, 11) --> 3, (9, 12) --> 2, (9, 13) --> 1,
                 (9, 14) --> 3, (9, 15) --> 3, (9, 16) --> 1, (9, 17) --> 2, (9, 18) --> 2, (9, 19) --> 1,
                 (9, 20) --> 2, (9, 21) --> 3, (9, 22) --> 2, (9, 23) --> 1, (9, 24) --> 3, (9, 25) --> 2,
                 (9, 26) --> 3, (9, 27) --> 3, (9, 28) --> 1, (9, 29) --> 2, (9, 30) --> 1, (10, 1) --> 3,
                 (10, 2) --> 1, (10, 3) --> 2, (10, 4) --> 3, (10, 5) --> 2, (10, 6) --> 1, (10, 7) --> 2,
                 (10, 8) --> 1, (10, 9) --> 3, (10, 10) --> 1, (10, 11) --> 1, (10, 12) --> 2, (10, 13) --> 2,
                 (10, 14) --> 2, (10, 15) --> 1, (10, 16) --> 1, (10, 17) --> 3, (10, 18) --> 3, (10, 19) --> 2,
                 (10, 20) --> 2, (10, 21) --> 3, (10, 22) --> 1, (10, 23) --> 1, (10, 24) --> 1, (10, 25) --> 2,
                 (10, 26) --> 2, (10, 27) --> 2, (10, 28) --> 1, (10, 29) --> 2, (10, 30) --> 2, (11, 1) --> 3,
                 (11, 2) --> 1, (11, 3) --> 2, (11, 4) --> 3, (11, 5) --> 3, (11, 6) --> 3, (11, 7) --> 3,
                 (11, 8) --> 3, (11, 9) --> 3, (11, 10) --> 3, (11, 11) --> 3, (11, 12) --> 3, (11, 13) --> 1,
                 (11, 14) --> 2, (11, 15) --> 2, (11, 16) --> 3, (11, 17) --> 3, (11, 18) --> 3, (11, 19) --> 3,
                 (11, 20) --> 2, (11, 21) --> 1, (11, 22) --> 3, (11, 23) --> 1, (11, 24) --> 1, (11, 25) --> 1,
                 (11, 26) --> 2, (11, 27) --> 2, (11, 28) --> 2, (11, 29) --> 3, (11, 30) --> 1, (12, 1) --> 2,
                 (12, 2) --> 3, (12, 3) --> 1, (12, 4) --> 1, (12, 5) --> 1, (12, 6) --> 1, (12, 7) --> 2,
                 (12, 8) --> 3, (12, 9) --> 2, (12, 10) --> 3, (12, 11) --> 2, (12, 12) --> 2, (12, 13) --> 1,
                 (12, 14) --> 3, (12, 15) --> 1, (12, 16) --> 1, (12, 17) --> 3, (12, 18) --> 1, (12, 19) --> 2,
                 (12, 20) --> 2, (12, 21) --> 3, (12, 22) --> 1, (12, 23) --> 1, (12, 24) --> 1, (12, 25) --> 3,
                 (12, 26) --> 3, (12, 27) --> 1, (12, 28) --> 3, (12, 29) --> 2, (12, 30) --> 2, (13, 1) --> 2,
                 (13, 2) --> 2, (13, 3) --> 2, (13, 4) --> 3, (13, 5) --> 1, (13, 6) --> 2, (13, 7) --> 3,
                 (13, 8) --> 2, (13, 9) --> 1, (13, 10) --> 3, (13, 11) --> 1, (13, 12) --> 3, (13, 13) --> 3,
                 (13, 14) --> 3, (13, 15) --> 2, (13, 16) --> 1, (13, 17) --> 2, (13, 18) --> 1, (13, 19) --> 1,
                 (13, 20) --> 3, (13, 21) --> 1, (13, 22) --> 2, (13, 23) --> 1, (13, 24) --> 2, (13, 25) --> 3,
                 (13, 26) --> 2, (13, 27) --> 3, (13, 28) --> 1, (13, 29) --> 1, (13, 30) --> 2)
letting demand be function(1 --> 32, 2 --> 32, 3 --> 32, 4 --> 32, 5 --> 32, 6 --> 32)
letting maxCost be 21
letting n_customer be 6
letting n_transshipment be 30
letting n_warehouses be 13
letting stock be
        function(1 --> 22, 2 --> 22, 3 --> 22, 4 --> 22, 5 --> 22, 6 --> 22, 7 --> 22, 8 --> 22, 9 --> 22, 10 --> 22,
                 11 --> 22, 12 --> 22, 13 --> 22)
